* Signature: 0xefb2faddc321b44a
NAME lp_typeD_063
OBJSENSE MAX
ROWS
 N  OBJ
 L  c0      
 G  c1      
 G  c2      
 L  c_key_upper
 G  c_key_lower
 G  _chain_constr_1
 G  _chain_constr_2
 G  _chain_cycle
COLUMNS
    x0        OBJ       1.2477881066453795e+00
    x0        c0        0.914653319593383
    x0        c1        1.7677231220215464e+00
    x0        c2        1.7144133507151573e+00
    x0        c_key_upper  1.0153908131987057e+00
    x0        c_key_lower  1.0153908131987057e+00
    x1        OBJ       5.8777398120457669e-01
    x1        c0        0.52262538939044
    x1        c1        7.3767764222595678e-01
    x1        c2        1.4172996406336191e+00
    x1        c_key_upper  1.7155508209420276e+00
    x1        c_key_lower  1.7155508209420276e+00
    x2        OBJ       1.2454598443413873e+00
    x2        c0        7.3254916118885660e-01
    x2        c1        8.1414300971896347e-01
    x2        c2        1.9713119211943471e+00
    x2        c_key_upper  1.6007189097525143e+00
    x2        c_key_lower  1.6007189097525143e+00
    x3        OBJ       0.717084197882105
    x3        c0        5.5683363912453943e-01
    x3        c1        1.5400836756856489e+00
    x3        c2        7.7622912215795892e-01
    x3        c_key_upper  1.5229197111536190e+00
    x3        c_key_lower  1.5229197111536190e+00
    x4        OBJ       1.0210062456165232e+00
    x4        c0        1.7762677070922643e+00
    x4        c1        1.8811484828304152e+00
    x4        c2        9.2745458681529058e-01
    x4        c_key_upper  1.5223444227058889e+00
    x4        c_key_lower  1.5223444227058889e+00
    x5        OBJ       1.2974564068246082e+00
    x5        c0        1.1522696461579354e+00
    x5        c1        1.9483824018013391e+00
    x5        c2        7.6336800721887177e-01
    x5        c_key_upper  1.2608538197278703e+00
    x5        c_key_lower  1.2608538197278703e+00
    x6        OBJ       9.9961227837782030e-01
    x6        c0        1.0598954133442740e+00
    x6        c1        1.2855978965047359e+00
    x6        c2        1.0038682962488001e+00
    x6        c_key_upper  1.9738961078277928e+00
    x6        c_key_lower  1.9738961078277928e+00
    x7        OBJ       1.1097073943897411e+00
    x7        c0        1.49985218342144
    x7        c1        1.3050232675518196e+00
    x7        c2        6.1199402215122067e-01
    x7        c_key_upper  1.5526022067001639e+00
    x7        c_key_lower  1.5526022067001639e+00
    _chain_var_0  _chain_constr_1  -1
    _chain_var_0  _chain_cycle  1
    _chain_var_1  _chain_constr_1  1
    _chain_var_1  _chain_constr_2  -1
    _chain_var_2  _chain_constr_2  1
    _chain_var_2  _chain_cycle  -1
RHS
    RHS1      c0        4.0202945697374545e+01
    RHS1      c1        1.5057248810619013e+01
    RHS1      c2        1.0082231114101807e+01
    RHS1      c_key_upper  6.0821384060042909e+01
    RHS1      c_key_lower  3.0410692030021455e+01
    RHS1      _chain_constr_1  10
    RHS1      _chain_constr_2  10
    RHS1      _chain_cycle  10
BOUNDS
 UP BND1      x0        10
 UP BND1      x1        10
 UP BND1      x2        10
 UP BND1      x3        10
 UP BND1      x4        10
 UP BND1      x5        10
 UP BND1      x6        10
 UP BND1      x7        10
 UP BND1      _chain_var_0  100
 UP BND1      _chain_var_1  100
 UP BND1      _chain_var_2  100
ENDATA
